40
1 0 31
2 0 16
2 1 18
3 1 3
3 2 2
4 0 26
4 1 23
4 2 21
4 3 17
5 1 29
5 2 28
5 3 9
6 0 17
6 1 40
6 2 33
6 3 21
6 4 30
6 5 23
7 0 27
7 1 18
7 2 5
7 3 16
7 4 22
7 5 31
7 6 16
8 0 7
8 1 29
8 2 4
8 5 11
8 6 27
9 0 28
9 1 8
9 4 34
9 5 24
9 6 29
9 7 16
9 8 7
10 0 5
10 1 8
10 3 26
10 4 36
10 6 29
10 7 19
11 0 21
11 1 33
11 2 19
11 3 37
11 5 4
11 7 35
11 8 26
11 9 13
11 10 19
12 0 17
12 1 10
12 2 40
12 3 8
12 4 4
12 5 22
12 6 10
12 7 38
12 9 18
12 10 10
13 0 20
13 1 17
13 4 10
13 5 24
13 6 26
13 7 4
13 8 18
13 9 16
13 11 38
13 12 24
14 1 37
14 3 26
14 4 6
14 5 22
14 6 14
14 7 25
14 8 5
14 9 35
14 11 38
14 12 24
14 13 2
15 0 36
15 1 2
15 2 22
15 3 25
15 4 39
15 5 5
15 6 10
15 7 36
15 9 36
15 10 5
15 11 27
15 12 1
15 13 14
15 14 38
16 0 32
16 1 4
16 2 18
16 3 39
16 4 6
16 5 29
16 6 14
16 7 16
16 8 2
16 9 17
16 10 1
16 11 3
16 12 38
16 14 28
16 15 10
17 0 1
17 1 21
17 2 1
17 3 13
17 4 32
17 5 28
17 8 21
17 10 28
17 14 38
17 15 32
18 0 3
18 1 4
18 2 37
18 3 2
18 5 20
18 6 16
18 7 5
18 8 6
18 9 21
18 10 14
18 11 30
18 12 11
18 13 6
18 14 1
18 16 25
19 0 20
19 1 40
19 2 27
19 3 22
19 4 29
19 5 38
19 6 15
19 7 31
19 8 28
19 9 25
19 11 3
19 12 32
19 13 38
19 14 34
19 18 28
20 1 9
20 2 6
20 3 7
20 4 5
20 5 16
20 6 8
20 7 36
20 8 39
20 9 20
20 10 13
20 12 28
20 13 32
20 14 5
20 15 2
20 16 25
20 17 15
20 18 32
20 19 36
21 1 37
21 2 12
21 4 32
21 5 24
21 6 26
21 7 32
21 9 36
21 11 31
21 12 5
21 14 18
21 15 26
21 16 25
21 17 35
21 19 1
21 20 31
22 0 37
22 1 5
22 2 16
22 3 37
22 6 34
22 7 9
22 8 32
22 9 30
22 10 33
22 11 20
22 12 6
22 13 17
22 15 6
22 16 22
22 17 4
22 18 10
22 19 33
22 20 39
22 21 35
23 0 12
23 1 31
23 4 28
23 5 4
23 6 9
23 7 7
23 8 17
23 9 23
23 10 19
23 11 19
23 14 32
23 17 31
23 18 18
23 19 30
23 20 33
23 21 4
23 22 14
24 0 37
24 1 9
24 2 18
24 4 40
24 6 28
24 8 6
24 10 15
24 11 10
24 12 18
24 13 37
24 14 28
24 16 21
24 17 35
24 18 17
24 21 9
24 22 20
24 23 31
25 0 22
25 1 11
25 2 24
25 3 30
25 4 24
25 5 1
25 6 27
25 7 20
25 8 17
25 9 14
25 10 32
25 11 11
25 12 5
25 13 16
25 14 7
25 16 29
25 18 4
25 19 27
25 20 15
25 21 27
25 22 5
25 23 23
25 24 16
26 0 3
26 1 30
26 2 32
26 4 34
26 7 2
26 8 33
26 9 12
26 11 7
26 12 21
26 13 28
26 14 40
26 15 2
26 16 2
26 17 16
26 18 32
26 19 8
26 20 35
26 21 8
26 22 40
26 23 9
26 24 23
26 25 31
27 0 13
27 1 2
27 2 21
27 3 7
27 4 36
27 5 9
27 6 4
27 7 15
27 8 33
27 9 17
27 10 34
27 11 5
27 12 33
27 13 31
27 14 17
27 16 23
27 18 29
27 19 10
27 20 19
27 22 10
27 23 22
27 24 7
27 25 5
27 26 15
28 0 36
28 1 9
28 2 28
28 3 38
28 4 3
28 6 36
28 8 23
28 9 6
28 10 23
28 11 37
28 13 10
28 14 1
28 15 34
28 16 10
28 19 25
28 20 34
28 21 32
28 22 38
28 23 5
28 24 27
28 25 3
28 26 23
29 0 2
29 1 36
29 2 11
29 3 7
29 5 16
29 6 7
29 7 15
29 8 22
29 9 32
29 10 33
29 11 16
29 12 25
29 13 5
29 14 24
29 15 30
29 16 35
29 18 21
29 19 31
29 20 10
29 21 23
29 22 24
29 24 15
29 25 29
29 26 10
29 28 2
30 0 29
30 4 36
30 5 3
30 6 7
30 7 17
30 8 6
30 9 29
30 10 40
30 11 40
30 12 4
30 13 23
30 14 4
30 15 34
30 16 27
30 17 18
30 18 17
30 19 34
30 20 37
30 22 5
30 23 34
30 26 11
30 27 10
30 28 6
30 29 20
31 0 14
31 1 19
31 4 3
31 5 5
31 6 12
31 7 33
31 8 26
31 9 23
31 11 29
31 12 39
31 13 40
31 14 2
31 15 4
31 16 19
31 19 7
31 22 21
31 24 19
31 25 7
31 27 34
31 28 5
31 29 38
31 30 14
32 0 25
32 1 5
32 2 24
32 3 28
32 4 27
32 5 20
32 6 22
32 7 7
32 8 28
32 9 14
32 10 24
32 11 10
32 13 15
32 15 6
32 16 3
32 17 11
32 20 9
32 21 37
32 22 31
32 24 14
32 25 3
32 26 9
32 27 21
32 28 9
32 29 26
32 30 26
33 0 16
33 2 1
33 3 28
33 4 13
33 5 14
33 6 27
33 7 2
33 8 24
33 9 20
33 10 20
33 12 12
33 13 15
33 14 22
33 15 1
33 16 23
33 19 8
33 20 36
33 21 31
33 23 11
33 24 12
33 25 23
33 26 34
33 27 21
33 28 40
33 29 7
33 30 23
33 32 15
34 0 2
34 1 21
34 2 6
34 3 19
34 4 40
34 5 9
34 6 28
34 7 17
34 8 24
34 9 15
34 11 27
34 12 22
34 13 21
34 15 25
34 16 20
34 17 24
34 18 34
34 19 21
34 20 4
34 22 38
34 24 7
34 25 12
34 27 7
34 28 10
34 29 26
34 30 10
34 32 28
34 33 4
35 0 5
35 1 32
35 2 18
35 4 26
35 5 6
35 6 6
35 7 23
35 8 4
35 10 11
35 11 11
35 12 30
35 14 29
35 16 36
35 18 3
35 19 1
35 20 5
35 22 14
35 25 8
35 26 6
35 27 13
35 30 26
35 31 32
35 32 2
35 33 29
35 34 35
36 0 19
36 1 33
36 2 19
36 3 38
36 4 19
36 5 6
36 6 3
36 8 3
36 9 20
36 11 30
36 12 31
36 13 9
36 14 21
36 16 15
36 17 14
36 18 22
36 19 3
36 20 10
36 22 32
36 24 33
36 25 29
36 26 29
36 29 40
36 31 39
36 32 34
36 34 30
36 35 10
37 0 10
37 1 11
37 2 21
37 3 15
37 4 5
37 5 11
37 7 35
37 8 2
37 9 27
37 10 39
37 11 9
37 12 40
37 13 6
37 14 23
37 15 24
37 16 12
37 18 15
37 19 6
37 20 32
37 21 29
37 22 28
37 23 22
37 24 33
37 25 38
37 26 14
37 27 11
37 29 1
37 30 18
37 31 18
37 33 15
37 34 3
37 35 24
37 36 34
38 0 3
38 1 15
38 3 32
38 4 18
38 5 22
38 6 19
38 7 35
38 8 21
38 9 8
38 10 25
38 11 24
38 12 7
38 13 28
38 15 10
38 16 27
38 19 35
38 21 38
38 22 33
38 23 13
38 24 33
38 25 2
38 27 2
38 28 39
38 31 9
38 32 15
38 34 39
38 37 7
39 0 29
39 1 29
39 2 30
39 3 26
39 4 38
39 5 29
39 6 11
39 7 17
39 9 35
39 10 16
39 11 29
39 12 38
39 13 19
39 14 18
39 15 40
39 18 9
39 19 23
39 20 12
39 21 15
39 22 34
39 23 32
39 24 35
39 25 25
39 26 24
39 28 4
39 30 21
39 31 21
39 32 3
39 33 25
39 34 19
39 35 38
39 36 2
39 37 23
39 38 4
